791, 0, 0, 84, 3
792, 0, 1, 91, 1
793, 0, 2, 99, 0
794, 0, 3, 85, 4
795, 0, 4, 90, 2
796, 1, 0, 63, 4
797, 1, 1, 36, 0
798, 1, 2, 91, 1
799, 1, 3, 51, 2
800, 1, 4, 76, 3
801, 2, 0, 33, 0
802, 2, 1, 54, 3
803, 2, 2, 52, 4
804, 2, 3, 49, 2
805, 2, 4, 43, 1
806, 3, 0, 60, 4
807, 3, 1, 86, 0
808, 3, 2, 34, 2
809, 3, 3, 40, 3
810, 3, 4, 88, 1
